submitit INFO (2023-04-30 19:21:35,932) - Starting with JobEnvironment(job_id=27532, hostname=cpunode2, local_rank=0(5), node=0(1), global_rank=0(5))
submitit INFO (2023-04-30 19:21:35,932) - Loading pickle: /h/30/pashootan/Matrix-Mult-CP/src/../logs/2x2x2_6_Apr30_19:21:33/27532_submitted.pkl
 ! --------------------------------------------------- CP Optimizer 22.1.1.0 --
 ! Satisfiability problem - 72 variables, 117 constraints
 ! TimeLimit            = 7200
 ! Workers              = 8
 ! LogPeriod            = 10000000
 ! RandomSeed           = 2570
 ! Initial process time : 0.02s (0.02s extraction + 0.00s propagation)
 !  . Log search space  : 107.1 (before), 107.1 (after)
 !  . Memory usage      : 495.1 kB (before), 495.1 kB (after)
 ! Using parallel search with 8 workers.
 ! ----------------------------------------------------------------------------
 !               Branches  Non-fixed    W       Branch decision
                   10000k          6    1   F     0 != W5_1
                   10000k          6    5         0  = W1_2
                   10000k          6    6         1  = V0_2
                   10000k          6    2   F    -1 != W4_1
                   10000k          6    8        -1 != V1_1
                   10000k          8    3        -1 != V0_1
                   10000k          6    4   F     1  = V4_2
                   10000k          7    7   F    -1  = W3_1
                   20000k          6    5   F     1 != V0_0
                   20000k          6    1         0 != W0_1
                   20000k          6    6   F     0  = W1_1
                   20000k          5    2   F    -1 != V2_0
                   20000k          6    4        -1  = U5_1
                   20000k          6    3   F     1  = W3_1
                   20000k          6    8        -1  = U4_2
                   20000k          8    7         0 != V5_3
                   30000k          6    5         0  = V5_0
                   30000k          6    6         0 != V2_1
                   30000k          7    1        -1 != W0_1
                   30000k          6    2         0 != W0_3
 ! Time = 305.73s, Average fail depth = 18, Memory usage = 142.9 MB
 !               Branches  Non-fixed    W       Branch decision
                   30000k          6    4   F     0  = V3_0
                   30000k          7    3   F     0  = W3_1
                   30000k          6    8         1  = V3_0
                   30000k          7    7        -1  = V0_2
                   40000k          6    5         0 != U5_2
                   40000k          6    6        -1 != W1_2
                   40000k          6    1         1 != V5_2
                   40000k          6    2         0 != U1_2
                   40000k          7    4         0  = U2_2
                   40000k          9    7         1  = V2_0
                   40000k          8    3        -1  = U1_1
                   40000k          6    8   F    -1 != V2_0
 ! ----------------------------------------------------------------------------
 ! Search completed, model has no solution.
 ! ----------------------------------------------------------------------------
 ! Number of branches     : 335472753
 ! Number of fails        : 165494268
 ! Total memory usage     : 205.3 MB (205.3 MB CP Optimizer + 0.0 MB Concert)
 ! Time spent in solve    : 429.95s (429.93s engine + 0.02s extraction)
 ! Search speed (br. / s) : 780296.2
 ! ----------------------------------------------------------------------------
Infeasible
Saving stats to: /h/30/pashootan/Matrix-Mult-CP/logs/2x2x2_6_Apr30_19:21:33/27532_0_stats.csv
submitit INFO (2023-04-30 19:28:46,262) - Job completed successfully
